p cnf 43 111
c weights 1.0 1.0 0.2 0.8 1.0 1.0 0.3 1.0 0.7 1.0 0.0 1.0 1.0 1.0 1.0 1.0 0.2 0.8 1.0 1.0 0.3 1.0 0.7 1.0 0.0 1.0 1.0 1.0 1.0 1.0 0.2 0.8 1.0 1.0 0.3 1.0 0.7 1.0 0.0 1.0 1.0 1.0 1.0 1.0 0.1 0.9 1.0 1.0 0.4 1.0 0.6 1.0 0.0 1.0 1.0 1.0 0.0 1.0 1.0 1.0 0.0 1.0 1.0 1.0 1.0 1.0 0.1 0.9 1.0 1.0 0.4 1.0 0.6 1.0 0.0 1.0 1.0 1.0 0.0 1.0 1.0 1.0 0.0 1.0 1.0 1.0

c-------------------- *** AUX 1-3 *** ---------------------

c---------- stress(a)
1 -2 0
-1 2 0

c---------- aux1 | stress(a)
4 -3 -1 0
-4 3 0
-4 1 0

c---------- -aux1 | stress(a)
5 3 -1 0
-5 -3 0
-5 1 0

c---------- aux1 | -stress(a)
6 -3 1 0
-6 3 0
-6 -1 0

c---------- -aux1 | -stress(a)
7 3 1 0
-7 -3 0
-7 -1 0

c---------- stress(b)
8 -9 0
-8 9 0

c---------- aux2 | stress(b)
11 -10 -8 0
-11 10 0
-11 8 0

c---------- -aux2 | stress(b)
12 10 -8 0
-12 -10 0
-12 8 0

c---------- aux2 | -stress(b)
13 -10 8 0
-13 10 0
-13 -8 0

c---------- -aux2 | -stress(b)
14 10 8 0
-14 -10 0
-14 -8 0

c---------- stress(c)
15 -16 0
-15 16 0

c---------- aux3 | stress(c)
18 -17 -15 0
-18 17 0
-18 15 0

c---------- -aux3 | stress(c)
19 17 -15 0
-19 -17 0
-19 15 0

c---------- aux3 | -stress(c)
20 -17 15 0
-20 17 0
-20 -15 0

c---------- -aux3 | -stress(c)
21 17 15 0
-21 -17 0
-21 -15 0

c-------------------- *** AUX 4-5 *** ---------------------

c---------- friends(b,c)
22 -23 0
-22 23 0

c---------- aux4 | friends(b,c) & aux3
25 -24 -22 -17 0
-25 24 0
-25 22 0
-25 17 0

c---------- -aux4 | friends(b,c) & aux3
26 24 -22 -17 0
-26 -24 0
-26 22 0
-26 17 0

c---------- aux4 | friends(b,c) & -aux3
27 -24 -22 17 0
-27 24 0
-27 22 0
-27 -17 0

c---------- -aux4 | friends(b,c) & -aux3
28 24 -22 17 0
-28 -24 0
-28 22 0
-28 -17 0

c---------- aux4 | -friends(b,c) & aux3
29 -24 22 -17 0
-29 24 0
-29 -22 0
-29 17 0

c---------- -aux4 | -friends(b,c) & aux3
30 24 22 -17 0
-30 -24 0
-30 -22 0
-30 17 0

c---------- aux4 | -friends(b,c) & -aux3
31 -24 22 17 0
-31 24 0
-31 -22 0
-31 -17 0

c---------- -aux4 | -friends(b,c) & -aux3
32 24 22 17 0
-32 -24 0
-32 -22 0
-32 -17 0

c---------- friends(c,b)
33 -34 0
-33 34 0

c---------- aux5 | friends(c,b) & aux2
36 -35 -33 -10 0
-36 35 0
-36 33 0
-36 10 0

c---------- -aux5 | friends(c,b) & aux2
37 35 -33 -10 0
-37 -35 0
-37 33 0
-37 10 0

c---------- aux5 | friends(c,b) & -aux2
38 -35 -33 10 0
-38 35 0
-38 33 0
-38 -10 0

c---------- -aux5 | friends(c,b) & -aux2
39 35 -33 10 0
-39 -35 0
-39 33 0
-39 -10 0

c---------- aux5 | -friends(c,b) & aux2
40 -35 33 -10 0
-40 35 0
-40 -33 0
-40 10 0

c---------- -aux5 | -friends(c,b) & aux2
41 35 33 -10 0
-41 -35 0
-41 -33 0
-41 10 0

c---------- aux5 | -friends(c,b) & -aux2
42 -35 33 10 0
-42 35 0
-42 -33 0
-42 -10 0

c---------- -aux5 | -friends(c,b) & -aux2
43 35 33 10 0
-43 -35 0
-43 -33 0
-43 -10 0

c-------------------- *** AUX 4-5 *** ---------------------


1 0






























